(declare-const BAV1 Bool)
(declare-const BAV2 Bool)
(declare-const BAV3 Bool)
(declare-const BAV4 Bool)
(declare-const BAV5 Bool)
(declare-sort S)
(declare-const a S)
(declare-const b S)
(declare-const c S)
(declare-fun f (S) S)
(declare-const v S)
(assert (distinct a b c))
(assert (or (= v a) (= v b) (= v c)))
(apply symmetry-reduce)
(assert (= BAV1 (distinct a b c)))
(assert (= BAV2 (or (= v a) (= v b) (= v c))))
(assert (= BAV3 (= v a)))
(assert (= BAV4 (= v b)))
(assert (= BAV5 (= v c)))